(set-info :smt-lib-version 2.5)
(set-info :license |https://www.gnu.org/licenses/gpl-3.0.html|)
(set-logic QF_UFDTLIRA)
(set-info :source |Benchmarks generated by Florian Schanda from the public SPARK 2014 testsuite and post-processed with a script to set more precise logics.|)
(set-info :category industrial)
(set-info :status unknown)

(declare-datatypes () ((tuple0 (Tuple0))))
(declare-sort us_private 0)
(declare-fun private__bool_eq (us_private us_private) Bool)
(declare-const us_null_ext__ us_private)
(declare-sort us_type_of_heap 0)
(declare-datatypes () ((us_type_of_heap__ref (mk___type_of_heap__ref (us_type_of_heap__content us_type_of_heap)))))
(declare-sort us_image 0)
(declare-datatypes () ((int__ref (mk_int__ref (int__content Int)))))
(declare-datatypes () ((bool__ref (mk_bool__ref (bool__content Bool)))))
(declare-datatypes () ((real__ref (mk_real__ref (real__content Real)))))
(declare-datatypes () ((us_private__ref (mk___private__ref (us_private__content us_private)))))
(define-fun int__ref___projection ((a int__ref)) Int (int__content a))
(define-fun bool__ref___projection ((a bool__ref)) Bool (bool__content a))
(define-fun real__ref___projection ((a real__ref)) Real (real__content a))
(define-fun us_private__ref___projection ((a us_private__ref)) us_private (us_private__content a))
(declare-sort integer 0)
(define-fun in_range ((x Int)) Bool (and (<= (- 2147483648) x) (<= x 2147483647)))
(declare-fun attr__ATTRIBUTE_IMAGE (Int) us_image)
(declare-fun attr__ATTRIBUTE_VALUE__pre_check (us_image) Bool)
(declare-fun attr__ATTRIBUTE_VALUE (us_image) Int)
(declare-fun user_eq (integer integer) Bool)
(declare-const dummy integer)
(declare-datatypes () ((integer__ref (mk_integer__ref (integer__content integer)))))
(define-fun integer__ref___projection ((a integer__ref)) integer (integer__content a))
(define-fun dynamic_invariant ((temp___expr_15 Int) (temp___is_init_12 Bool) (temp___skip_constant_13 Bool) (temp___do_toplevel_14 Bool)) Bool (=> (or (= temp___is_init_12 true) (<= (- 2147483648) 2147483647)) (in_range temp___expr_15)))
(declare-const l Int)
(declare-const attr__ATTRIBUTE_ADDRESS Int)
(declare-const attr__ATTRIBUTE_ADDRESS1 Int)
(declare-const room Int)
(declare-const o Int)
(declare-const o1 Int)
(declare-const o2 Int)
(declare-const result Int)
(declare-const room1 Int)
(declare-const result1 Int)
(declare-const room2 Int)
(declare-const result2 Int)
(declare-const room3 Int)
(assert (in_range l))
(assert (= result room))
(assert (= room1 0))
(assert (in_range room1))
(assert (=> (<= 3 l) (and (= o (+ room1 20)) (in_range (+ room1 20)))))
(assert (=> (<= 3 l) (= result1 room1)))
(assert (=> (<= 3 l) (= room2 o)))
(assert (=> (not (<= 3 l)) (= room2 room1)))
(assert (=> (<= 5 l) (and (= o1 (+ room2 20)) (in_range (+ room2 20)))))
(assert (=> (<= 5 l) (= result2 room2)))
(assert (=> (<= 5 l) (= room3 o1)))
(assert (=> (not (<= 5 l)) (= room3 room2)))
(assert (not (in_range (+ room3 14))))
(check-sat)
(exit)
